param set_len = 22;
param target_sum = 693352;
param values := [1] 121073 [2] 91221 [3] 70120 [4] 58155 [5] 38425 [6] 110669 [7] 96741 [8] 110438 [9] 63852 [10] 102867 [11] 50559 [12] 38530 [13] 51787 [14] 57784 [15] 4341 [16] 68757 [17] 62336 [18] 9867 [19] 21144 [20] 96009 [21] 7163 [22] 102871 ;
